; benchmark generated from python API
(set-info :status unknown)
(declare-datatypes ((IntState 0)) (((Mk1 (val1 Int)) (Mk2 (val2 Int)))))
 (declare-fun c_main_~j~6 () Int)
(declare-fun c_main_~k~6 () Int)
(declare-fun c_main_~i~6 () Int)
(assert
 (let (($x115 (exists ((v_nnf_78_st IntState) (val!1 Int) )(let ((?x56 (val2 v_nnf_78_st)))
 (let (($x58 (<= ?x56 4)))
 (let (($x35 (and (<= (+ ?x56 2) c_main_~k~6) (<= c_main_~j~6 (+ (* 2 ?x56) 1)) $x58)))
 (let (($x52 (not (= v_nnf_78_st (Mk1 val!1)))))
 (and $x52 $x35))))))
 ))
 (let ((?x8 (* 2 c_main_~i~6)))
 (let (($x27 (<= c_main_~j~6 ?x8)))
 (let (($x13 (<= c_main_~i~6 4)))
 (let (($x11 (<= c_main_~j~6 (+ ?x8 1))))
 (let (($x113 (exists ((v_nnf_82 Int) )(let (($x24 (<= v_nnf_82 4)))
 (let (($x102 (<= c_main_~j~6 (+ (* 2 v_nnf_82) 1))))
 (and (<= (+ v_nnf_82 4) c_main_~k~6) $x102 $x24))))
 ))
 (and (and $x11 $x13 $x27 $x113) (not (and $x11 $x13 $x27 $x115))))))))))
(check-sat)
